; benchmark generated from python API
(set-info :status unknown)
(declare-datatypes ((RealState 0)) (((RMk1 (rval1 Real)) (RMk2 (rval2 Real)))))
 (assert
 (exists ((|v11:0_st| RealState) (val!4868 Real) )(exists ((|v10:1_st| RealState) (val!4869 Real) )(exists ((|v9:2_st| RealState) (val!4870 Real) )(exists ((|v8:3_st| RealState) (val!4871 Real) )(forall ((|v7:4| Real) )(forall ((|v6:5| Real) )(forall ((|v5:6| Real) )(forall ((|v4:7| Real) )(exists ((|v3:8_st| RealState) (val!4872 Real) )(exists ((|v2:9_st| RealState) (val!4873 Real) )(exists ((|v1:10_st| RealState) (val!4874 Real) )(exists ((|v0:11_st| RealState) (val!4875 Real) )(let ((?x1633 (- 7.0)))
 (let ((?x721 (rval2 |v0:11_st|)))
 (let ((?x2273 (* 12.0 ?x721)))
 (let ((?x1464 (+ (+ (+ (* (- 17.0) (rval2 |v2:9_st|)) (* 13.0 |v6:5|)) ?x2273) (* 15.0 (rval2 |v3:8_st|)))))
 (let ((?x2946 (- 12.0)))
 (let ((?x3071 (rval2 |v8:3_st|)))
 (let ((?x1774 (- 11.0)))
 (let ((?x3368 (* ?x1774 ?x3071)))
 (let ((?x1836 (+ (+ (+ (* (- 15.0) (rval2 |v2:9_st|)) (* 4.0 |v4:7|)) (rval2 |v3:8_st|)) ?x3368)))
 (let ((?x3437 (+ (+ (* ?x2946 (rval2 |v9:2_st|)) (* (- 18.0) |v4:7|)) (* (- 5.0) (rval2 |v10:1_st|)))))
 (let ((?x3138 (rval2 |v1:10_st|)))
 (let ((?x503 (* 17.0 ?x3138)))
 (let (($x3004 (<= (+ (+ (+ (* ?x2946 ?x3138) (* 11.0 (rval2 |v11:0_st|))) ?x2273) ?x503) ?x2946)))
 (let (($x1825 (and (and $x3004 (<= (+ ?x3437 (* (- 10.0) |v4:7|)) 10.0)) (and (<= ?x1836 ?x2946) (<= ?x1464 ?x1633)))))
 (let ((?x2387 (- 1.0)))
 (let ((?x78 (+ (+ (+ (* 11.0 |v4:7|) (* (- 10.0) (rval2 |v9:2_st|))) (* ?x1633 ?x3071)) (* (- 14.0) ?x721))))
 (let ((?x71 (- 9.0)))
 (let ((?x977 (- 6.0)))
 (let ((?x2650 (* ?x977 |v6:5|)))
 (let ((?x1690 (+ (+ (+ (* 4.0 ?x3071) (* 16.0 ?x3138)) (* (- 19.0) (rval2 |v3:8_st|))) ?x2650)))
 (let ((?x3147 (rval2 |v9:2_st|)))
 (let ((?x2720 (* 19.0 ?x3147)))
 (let ((?x2095 (+ (+ (+ (* 2.0 |v4:7|) (* (- 14.0) ?x3071)) (* 0.0 ?x3138)) ?x2720)))
 (let ((?x597 (* 18.0 ?x721)))
 (let ((?x2682 (+ (+ (+ (* 7.0 ?x3147) (* (- 20.0) ?x721)) (* (- 17.0) ?x721)) ?x597)))
 (let (($x2584 (and (and (<= ?x2682 ?x977) (<= ?x2095 13.0)) (and (<= ?x1690 ?x71) (<= ?x78 ?x2387)))))
 (let ((?x220 (rval2 |v11:0_st|)))
 (let ((?x1477 (- 5.0)))
 (let ((?x3095 (* ?x1477 ?x220)))
 (let ((?x1455 (+ (+ (* (- 16.0) (rval2 |v3:8_st|)) (* ?x71 (rval2 |v2:9_st|))) (* 6.0 ?x3071))))
 (let ((?x1017 (+ (+ (+ (* (- 19.0) ?x3071) (* 9.0 |v4:7|)) (* 16.0 (rval2 |v2:9_st|))) (* (- 2.0) ?x3147))))
 (let ((?x310 (* 12.0 |v4:7|)))
 (let ((?x1122 (+ (+ (+ (* 0.0 ?x3138) (* 12.0 ?x3138)) (* ?x2387 (rval2 |v10:1_st|))) ?x310)))
 (let ((?x496 (- 19.0)))
 (let ((?x2316 (* 9.0 |v6:5|)))
 (let (($x1445 (<= (+ (+ (+ (* 8.0 ?x721) (* 3.0 ?x220)) (* 14.0 |v5:6|)) ?x2316) ?x496)))
 (let (($x536 (and (and $x1445 (<= ?x1122 ?x2946)) (and (<= ?x1017 20.0) (<= (+ ?x1455 ?x3095) ?x1633)))))
 (let ((?x961 (- 2.0)))
 (let ((?x3298 (* ?x961 |v5:6|)))
 (let ((?x2258 (+ (+ (* 5.0 (rval2 |v3:8_st|)) (* (- 15.0) (rval2 |v10:1_st|))) (* (- 18.0) ?x3147))))
 (let ((?x2096 (- 10.0)))
 (let ((?x2286 (* ?x2096 ?x3138)))
 (let ((?x2355 (+ (+ (+ (* 11.0 |v7:4|) (* (- 15.0) ?x3147)) (* 7.0 |v7:4|)) ?x2286)))
 (let ((?x1642 (- 18.0)))
 (let ((?x2024 (+ (+ (+ (* 19.0 |v6:5|) (* ?x2096 ?x3147)) (* 9.0 (rval2 |v10:1_st|))) (* ?x496 ?x3147))))
 (let ((?x564 (+ (+ (+ (* ?x1774 |v6:5|) (* 14.0 ?x3147)) (* 2.0 ?x721)) (* (- 3.0) ?x3138))))
 (let (($x2119 (and (and (<= ?x564 18.0) (<= ?x2024 ?x1642)) (and (<= ?x2355 4.0) (<= (+ ?x2258 ?x3298) ?x977)))))
 (let ((?x1721 (+ (+ (+ (* 15.0 ?x3071) (* (- 20.0) ?x3147)) (* 20.0 |v6:5|)) (* ?x1774 (rval2 |v3:8_st|)))))
 (let ((?x3044 (- 20.0)))
 (let ((?x1093 (* ?x3044 ?x3147)))
 (let (($x787 (<= (+ (+ (+ (* ?x496 |v7:4|) (* ?x961 |v7:4|)) (* (- 4.0) ?x3071)) ?x1093) ?x1642)))
 (let ((?x2397 (rval2 |v3:8_st|)))
 (let ((?x772 (* 18.0 ?x2397)))
 (let ((?x973 (+ (+ (* ?x2387 (rval2 |v2:9_st|)) (* ?x2387 ?x3071)) (* (- 3.0) (rval2 |v2:9_st|)))))
 (let ((?x1319 (- 13.0)))
 (let ((?x2107 (* ?x1642 |v5:6|)))
 (let ((?x774 (+ (+ (+ (* 19.0 ?x3071) (* ?x71 (rval2 |v2:9_st|))) (* ?x977 |v5:6|)) ?x2107)))
 (let (($x1173 (and (and (<= ?x774 ?x1319) (<= (+ ?x973 ?x772) ?x2946)) (and $x787 (<= ?x1721 7.0)))))
 (let (($x2435 (<= (+ (+ (+ (* (- 8.0) ?x721) (* ?x1319 |v7:4|)) (* 14.0 ?x220)) |v4:7|) 1.0)))
 (let ((?x122 (+ (+ (+ (* (- 8.0) |v6:5|) ?x2397) (* 10.0 ?x2397)) (* 3.0 ?x3147))))
 (let ((?x2503 (- 3.0)))
 (let (($x1133 (<= (+ (+ (+ (* 0.0 ?x3138) (* 9.0 |v7:4|)) (* 20.0 ?x3138)) ?x2273) ?x2503)))
 (let ((?x834 (* 11.0 |v5:6|)))
 (let (($x2065 (<= (+ (+ (+ (* ?x2387 |v7:4|) (* 11.0 |v6:5|)) (* 3.0 ?x220)) ?x834) 20.0)))
 (let ((?x901 (* ?x1633 ?x3071)))
 (let ((?x2228 (+ (+ (+ (* (- 8.0) (rval2 |v10:1_st|)) (* ?x977 (rval2 |v10:1_st|))) ?x901) (* 0.0 (rval2 |v2:9_st|)))))
 (let ((?x544 (* ?x1633 ?x3138)))
 (let ((?x1104 (+ (+ (+ (* (- 16.0) ?x3071) (* 9.0 ?x3147)) (* 2.0 ?x3071)) ?x544)))
 (let ((?x1666 (* 18.0 |v5:6|)))
 (let ((?x317 (+ (+ (+ (* 0.0 ?x3147) (* 4.0 |v5:6|)) (* (- 8.0) (rval2 |v2:9_st|))) ?x1666)))
 (let (($x885 (<= (+ (+ (+ (* 9.0 |v4:7|) (* 10.0 |v5:6|)) (* 16.0 ?x220)) ?x597) ?x1633)))
 (let (($x2533 (and (and $x885 (<= ?x317 14.0)) (and (<= ?x1104 4.0) (<= ?x2228 ?x2946)))))
 (let ((?x1313 (* ?x496 |v4:7|)))
 (let ((?x1776 (+ (+ (+ (* (- 14.0) ?x3071) (* ?x1642 |v4:7|)) (* ?x1319 (rval2 |v2:9_st|))) ?x1313)))
 (let ((?x1946 (* 15.0 ?x3071)))
 (let ((?x923 (+ (+ (+ (* (- 17.0) (rval2 |v2:9_st|)) ?x544) (* 15.0 (rval2 |v10:1_st|))) ?x1946)))
 (let ((?x760 (* 4.0 |v4:7|)))
 (let ((?x2196 (+ (+ (+ (* 8.0 ?x721) (* 8.0 ?x2397)) (* (- 14.0) ?x3071)) ?x760)))
 (let ((?x847 (+ (+ (+ (* (- 17.0) ?x220) (* 11.0 ?x3138)) (* (- 14.0) ?x3138)) (* 10.0 ?x3138))))
 (let (($x1667 (and (and (<= ?x847 2.0) (<= ?x2196 ?x1633)) (and (<= ?x923 12.0) (<= ?x1776 ?x496)))))
 (let (($x96 (and (and $x1667 $x2533) (and (and (and $x2065 $x1133) (and (<= ?x122 ?x1633) $x2435)) $x1173))))
 (let ((?x2072 (- 14.0)))
 (let ((?x2743 (+ (+ (+ (* 19.0 ?x721) (* 8.0 |v5:6|)) (* ?x1642 |v7:4|)) (* ?x2072 ?x220))))
 (let (($x2083 (and (<= ?x2743 ?x2072) (<= (+ (+ (+ (* 18.0 ?x3147) ?x3138) ?x1313) ?x2650) ?x2072))))
 (let ((?x2155 (* ?x1642 ?x2397)))
 (let ((?x2313 (+ (+ (+ (* ?x1477 |v7:4|) (* (- 4.0) ?x3071)) (* (- 17.0) ?x3138)) ?x2155)))
 (let ((?x2587 (* ?x496 ?x2397)))
 (let (($x1352 (<= (+ (+ (+ (* 17.0 ?x721) (* 19.0 |v6:5|)) (* 16.0 ?x3138)) ?x2587) 16.0)))
 (let ((?x1224 (* 4.0 ?x3147)))
 (let (($x3055 (<= (+ (+ (+ (* 17.0 |v4:7|) (* ?x977 |v4:7|)) (* ?x1477 |v5:6|)) ?x1224) 15.0)))
 (let ((?x2648 (- 8.0)))
 (let (($x2620 (<= (+ (+ (+ (* 20.0 ?x3147) (* 16.0 ?x3138)) ?x2286) (* 14.0 ?x3147)) ?x2648)))
 (let ((?x2572 (- 4.0)))
 (let ((?x2628 (* 17.0 ?x3147)))
 (let (($x2007 (<= (+ (+ (+ (* ?x2648 ?x3138) (* 13.0 ?x220)) (* (- 16.0) ?x2397)) ?x2628) ?x2572)))
 (let ((?x140 (+ (+ (+ (* 14.0 (rval2 |v10:1_st|)) (* 13.0 ?x220)) (* 20.0 ?x220)) |v7:4|)))
 (let (($x606 (and (and (or (<= ?x140 20.0) $x2007) (and $x2620 $x3055)) (and (and $x1352 (<= ?x2313 11.0)) $x2083))))
 (let (($x3309 (<= (+ (+ (+ ?x3368 (* ?x977 ?x721)) (* ?x2648 ?x721)) (* ?x2946 |v7:4|)) 15.0)))
 (let (($x2894 (<= (+ (+ (+ (* ?x1477 ?x721) (* 13.0 |v6:5|)) (* 5.0 ?x3138)) ?x503) 13.0)))
 (let ((?x3387 (+ (+ (+ (* ?x2072 |v6:5|) (* ?x3044 ?x220)) (* 0.0 (rval2 |v10:1_st|))) ?x3138)))
 (let ((?x1893 (+ (+ (+ (* (- 15.0) |v6:5|) (* ?x496 ?x721)) (* (- 16.0) |v5:6|)) (* 3.0 |v6:5|))))
 (let ((?x1394 (+ (+ (+ (* ?x1477 (rval2 |v2:9_st|)) (* ?x2572 (rval2 |v10:1_st|))) (* 16.0 ?x2397)) (* 17.0 ?x2397))))
 (let ((?x515 (+ (+ (+ (* ?x2946 ?x3071) (* ?x977 ?x3071)) (* ?x3044 (rval2 |v10:1_st|))) (* 10.0 ?x3071))))
 (let (($x3460 (<= (+ (+ (+ (* ?x2648 ?x220) (* ?x2503 |v4:7|)) (* ?x3044 ?x721)) ?x2155) ?x2946)))
 (let ((?x2749 (- 17.0)))
 (let ((?x1077 (* 17.0 ?x220)))
 (let (($x1126 (<= (+ (+ (+ (* ?x2387 ?x220) (* ?x2503 ?x2397)) (* 4.0 |v5:6|)) ?x1077) ?x2749)))
 (let (($x1996 (and (and (and $x1126 $x3460) (and (<= ?x515 ?x2572) (<= ?x1394 ?x977))) (or (and (<= ?x1893 ?x496) (<= ?x3387 ?x1477)) (and $x2894 $x3309)))))
 (let ((?x660 (* 5.0 ?x2397)))
 (let ((?x1801 (+ (+ (+ (* (- 15.0) ?x2397) (* 7.0 ?x2397)) (* 11.0 ?x220)) ?x660)))
 (let ((?x2048 (* 14.0 |v7:4|)))
 (let (($x1900 (<= (+ (+ (+ (rval2 |v10:1_st|) (* 15.0 ?x3147)) (* 11.0 |v6:5|)) ?x2048) 3.0)))
 (let ((?x1550 (+ (+ (+ (* ?x2387 |v7:4|) (* ?x2749 |v7:4|)) (* (- 16.0) ?x721)) (* ?x961 ?x2397))))
 (let ((?x2250 (rval2 |v10:1_st|)))
 (let ((?x3291 (* 10.0 ?x2250)))
 (let (($x1135 (and (<= (+ (+ (+ (* 3.0 ?x220) (* 18.0 ?x3147)) ?x3368) ?x3291) 20.0) (<= ?x1550 13.0))))
 (let (($x174 (<= (+ (+ (+ ?x503 ?x2286) (* ?x2572 |v4:7|)) (* ?x977 (rval2 |v2:9_st|))) 12.0)))
 (let (($x1880 (<= (+ (+ (+ (* ?x1642 ?x2250) ?x2048) (* 14.0 ?x220)) (* ?x1319 ?x3071)) 5.0)))
 (let ((?x273 (rval2 |v2:9_st|)))
 (let (($x3097 (<= (+ (+ (+ (* ?x3044 ?x273) (* 0.0 ?x220)) (* 14.0 ?x721)) ?x273) 8.0)))
 (let (($x1059 (and (<= (+ (+ (+ ?x2250 (* 13.0 ?x220)) (* ?x2387 ?x3138)) |v7:4|) 13.0) $x3097)))
 (let (($x2051 (and (or $x1059 (and $x1880 $x174)) (and $x1135 (and $x1900 (<= ?x1801 7.0))))))
 (let ((?x1891 (* 6.0 |v5:6|)))
 (let (($x2151 (<= (+ (+ (+ (* ?x1633 ?x721) (* 8.0 ?x220)) (* ?x961 ?x220)) ?x1891) 5.0)))
 (let ((?x2818 (* ?x1477 |v5:6|)))
 (let (($x32 (<= (+ (+ (+ (* ?x1642 ?x273) (* 5.0 |v7:4|)) (* 15.0 |v4:7|)) ?x2818) 20.0)))
 (let (($x682 (<= (+ (+ (+ (* ?x1774 ?x3147) (* 10.0 |v7:4|)) (* 8.0 ?x3138)) ?x3095) 20.0)))
 (let ((?x2068 (* ?x3044 ?x2250)))
 (let (($x2372 (<= (+ (+ (+ (* (- 15.0) ?x721) (* 14.0 ?x3071)) (* ?x961 ?x273)) ?x2068) 6.0)))
 (let ((?x2523 (* 7.0 ?x220)))
 (let (($x1016 (<= (+ (+ (+ (* ?x2572 ?x3071) (* ?x2387 ?x273)) (* 6.0 ?x3147)) ?x2523) 18.0)))
 (let ((?x3270 (+ (+ (+ (* 15.0 |v5:6|) (* 14.0 ?x273)) (* 9.0 |v7:4|)) (* ?x2503 ?x3071))))
 (let ((?x1415 (- 15.0)))
 (let ((?x1374 (* 18.0 ?x273)))
 (let (($x1245 (<= (+ (+ (+ (* 13.0 ?x220) (* 13.0 ?x721)) (* ?x2946 ?x220)) ?x1374) ?x1415)))
 (let ((?x2424 (+ (+ (+ (* 19.0 ?x3071) (* 8.0 |v5:6|)) (* 5.0 ?x3138)) (* ?x2572 ?x2397))))
 (let (($x2725 (and (and (and (<= ?x2424 17.0) $x1245) (and (<= ?x3270 3.0) $x1016)) (and (and $x2372 $x682) (and $x32 $x2151)))))
 (let (($x2185 (and (or (and $x2725 $x2051) (and $x1996 $x606)) (and $x96 (and (and $x2119 $x536) (and $x2584 $x1825))))))
 (let (($x1161 (not (= |v0:11_st| (RMk1 val!4875)))))
 (let (($x1272 (not (= |v1:10_st| (RMk1 val!4874)))))
 (let (($x1346 (not (= |v2:9_st| (RMk1 val!4873)))))
 (let (($x2005 (not (= |v3:8_st| (RMk1 val!4872)))))
 (let (($x1367 (not (= |v8:3_st| (RMk1 val!4871)))))
 (let (($x3058 (not (= |v9:2_st| (RMk1 val!4870)))))
 (let (($x1294 (not (= |v10:1_st| (RMk1 val!4869)))))
 (let (($x2915 (not (= |v11:0_st| (RMk1 val!4868)))))
 (and $x2915 $x1294 $x3058 $x1367 $x2005 $x1346 $x1272 $x1161 $x2185))))))))))))))))))))))))))))))))))))))))))))))))))))))))))))))))))))))))))))))))))))))))))))))))))))))))))))))))))))))))))))))))))))))))))))))))))))
 )
 )
 )
 )
 )
 )
 )
 )
 )
 )
 )
 )
(check-sat)
